17	4
31	24	30	29	
0	0	0	0	0	3	2	3	4	
10	5	3	8	10	3	12	17	17	
10	8	2	3	8	3	5	6	14	
3	8	2	1	10	3	7	13	17	
2	1	1	4	4	2	9	17	
250	7	10	3	6	3	16	17	17	
225	8	1	1	4	3	8	16	17	
150	4	1	3	9	3	10	11	17	
150	10	5	5	3	2	15	17	
50	5	9	5	1	2	17	17	
25	2	4	4	3	2	17	17	
125	5	10	5	7	3	16	17	17	
3	4	7	9	8	1	14	
1	9	8	10	8	1	17	
3	5	2	9	4	3	17	17	17	
5	9	2	9	5	1	17	
0	0	0	0	0	0	
